NAME : local_5
TYPE : ATSP
DIMENSION : 28
EDGE_WEIGHT_TYPE : EXPLICIT
EDGE_WEIGHT_FORMAT : FULL_MATRIX
EDGE_WEIGHT_SECTION
0 10000000 10000000 10000000 10000000 10000000 10000000 10000000 10000000 10000000 10000000 10000000 829 837 10000000 360 10000000 10000000 10000000 10000000 10000000 10000000 10000000 10000000 10000000 619 10000000 10000000 
0 0 485 10000000 381 10000000 10000000 10000000 609 10000000 10000000 10000000 10000000 10000000 10000000 10000000 10000000 10000000 10000000 10000000 10000000 10000000 10000000 10000000 10000000 10000000 10000000 612 
0 485 0 962 316 10000000 10000000 885 536 10000000 10000000 10000000 10000000 10000000 10000000 10000000 10000000 10000000 10000000 10000000 10000000 10000000 10000000 10000000 10000000 10000000 10000000 786 
0 10000000 973 0 10000000 633 755 366 1033 10000000 10000000 990 10000000 10000000 682 10000000 589 10000000 10000000 10000000 10000000 10000000 10000000 10000000 10000000 10000000 10000000 10000000 
0 381 316 10000000 0 10000000 10000000 883 271 10000000 10000000 10000000 10000000 959 10000000 10000000 10000000 858 10000000 10000000 10000000 10000000 10000000 10000000 10000000 10000000 10000000 476 
0 10000000 10000000 633 10000000 0 166 804 10000000 10000000 10000000 10000000 674 10000000 412 10000000 844 10000000 10000000 10000000 10000000 10000000 10000000 10000000 636 10000000 716 10000000 
0 10000000 10000000 755 10000000 166 0 908 10000000 10000000 10000000 10000000 518 10000000 362 10000000 861 10000000 10000000 10000000 10000000 10000000 10000000 10000000 542 945 696 10000000 
0 10000000 885 366 883 804 865 0 755 10000000 10000000 637 10000000 10000000 679 10000000 335 992 10000000 10000000 10000000 10000000 10000000 10000000 10000000 10000000 10000000 10000000 
0 609 536 1025 271 10000000 10000000 755 0 882 10000000 823 10000000 780 10000000 10000000 904 604 10000000 10000000 10000000 10000000 10000000 10000000 10000000 10000000 10000000 352 
0 10000000 10000000 10000000 10000000 10000000 10000000 10000000 882 0 900 528 10000000 652 10000000 10000000 939 332 996 10000000 334 10000000 289 289 10000000 10000000 10000000 836 
0 10000000 10000000 10000000 10000000 10000000 10000000 10000000 10000000 900 0 700 10000000 10000000 10000000 10000000 786 10000000 333 696 841 242 715 10000000 10000000 10000000 10000000 10000000 
0 10000000 10000000 990 10000000 10000000 10000000 637 823 528 700 0 10000000 10000000 902 10000000 476 621 886 10000000 710 915 476 807 10000000 10000000 10000000 965 
0 10000000 10000000 10000000 10000000 674 518 10000000 10000000 10000000 10000000 10000000 0 10000000 477 757 951 10000000 10000000 10000000 10000000 10000000 10000000 10000000 724 803 10000000 10000000 
0 10000000 10000000 10000000 959 10000000 10000000 10000000 780 652 10000000 10000000 10000000 0 10000000 770 10000000 411 10000000 10000000 902 10000000 935 569 10000000 811 10000000 487 
0 10000000 10000000 682 10000000 412 362 679 10000000 10000000 10000000 902 477 10000000 0 10000000 558 10000000 10000000 10000000 10000000 10000000 10000000 10000000 860 10000000 10000000 10000000 
0 10000000 10000000 10000000 10000000 10000000 10000000 10000000 10000000 10000000 10000000 10000000 757 770 10000000 0 10000000 10000000 10000000 10000000 10000000 10000000 10000000 10000000 787 259 10000000 1011 
0 10000000 10000000 589 10000000 844 861 335 904 939 786 476 951 10000000 558 10000000 0 1015 10000000 10000000 10000000 10000000 918 10000000 10000000 10000000 10000000 10000000 
0 10000000 10000000 10000000 858 10000000 10000000 992 604 332 10000000 621 10000000 411 10000000 10000000 996 0 10000000 10000000 657 10000000 605 446 10000000 10000000 10000000 504 
0 10000000 10000000 10000000 10000000 10000000 10000000 10000000 10000000 996 333 886 10000000 10000000 10000000 10000000 10000000 10000000 0 781 826 301 749 10000000 10000000 10000000 10000000 10000000 
0 10000000 10000000 10000000 10000000 10000000 10000000 10000000 10000000 10000000 696 10000000 10000000 10000000 10000000 10000000 10000000 10000000 781 0 10000000 547 10000000 10000000 10000000 10000000 10000000 10000000 
0 10000000 10000000 10000000 10000000 10000000 10000000 10000000 10000000 334 841 710 10000000 902 10000000 10000000 10000000 657 826 10000000 0 897 246 357 10000000 10000000 10000000 10000000 
0 10000000 10000000 10000000 10000000 10000000 10000000 10000000 10000000 10000000 242 915 10000000 10000000 10000000 10000000 10000000 10000000 301 547 897 0 833 10000000 10000000 10000000 10000000 10000000 
0 10000000 10000000 10000000 10000000 10000000 10000000 10000000 10000000 289 715 476 10000000 935 10000000 10000000 918 605 749 10000000 246 833 0 487 10000000 10000000 10000000 10000000 
0 10000000 10000000 10000000 10000000 10000000 10000000 10000000 10000000 289 10000000 807 10000000 569 10000000 10000000 10000000 446 10000000 10000000 357 10000000 487 0 10000000 10000000 10000000 906 
0 10000000 10000000 10000000 10000000 636 542 10000000 10000000 10000000 10000000 10000000 724 10000000 860 787 10000000 10000000 10000000 10000000 10000000 10000000 10000000 10000000 0 613 332 10000000 
0 10000000 10000000 10000000 10000000 10000000 945 10000000 10000000 10000000 10000000 10000000 803 811 10000000 259 10000000 10000000 10000000 10000000 10000000 10000000 10000000 10000000 613 0 861 881 
0 10000000 10000000 10000000 10000000 716 696 10000000 10000000 10000000 10000000 10000000 10000000 10000000 10000000 10000000 10000000 10000000 10000000 10000000 10000000 10000000 10000000 10000000 332 861 0 10000000 
0 10000000 10000000 10000000 10000000 10000000 10000000 10000000 10000000 10000000 10000000 10000000 10000000 10000000 10000000 10000000 10000000 10000000 10000000 10000000 10000000 10000000 10000000 10000000 10000000 10000000 10000000 0 
EOF